num_stuff = 100;
num_bins = 100;
stuff = [16, 11, 12,  8,  3, 12,  6, 15, 11, 11, 13,  8, 10, 15, 10, 10,  9,
       12,  2, 10, 13,  6, 12,  9, 10, 11, 11,  9, 14,  7, 14, 11,  8, 10,
       11,  8, 13,  9,  6,  7, 12, 15,  8,  8, 13,  7,  8,  6,  9,  7, 10,
       11, 11, 10,  9, 10, 14,  7,  7, 10, 14, 10, 10, 13,  8, 12, 12,  7,
       14,  8,  9, 10, 10,  9, 16, 17, 12,  8,  7,  9,  8,  7, 11, 17,  7,
        6, 11, 10,  8, 15,  9,  6,  9, 12,  7, 11, 15, 11,  5, 10]; 
bin_capacity = 50;